Copyright (C) 2013-2015, Filipe Brandao
Build (method = -2)
  #dp: 103771
  Step-3' Graph: 677 vertices and 52534 arcs (0.37s)
  Step-4' Graph: 670 vertices and 52520 arcs (0.39s)
  #V4/#V3 = 0.99
  #A4/#A3 = 1.00
Ready! (0.39s)
Optimize a model with 1024 rows, 52521 columns and 156227 nonzeros
Presolve removed 167 rows and 171 columns
Presolve time: 0.33s
Presolved: 857 rows, 52350 columns, 155310 nonzeros
Variable types: 0 continuous, 52350 integer (32874 binary)
Optimize a model with 857 rows, 52350 columns and 155310 nonzeros
Presolved: 857 rows, 52350 columns, 155310 nonzeros

Root barrier log...

Ordering time: 0.01s

Barrier statistics:
 AA' NZ     : 9.418e+04
 Factor NZ  : 2.247e+05 (roughly 23 MBytes of memory)
 Factor Ops : 7.679e+07 (less than 1 second per iteration)
 Threads    : 1

                  Objective                Residual
Iter       Primal          Dual         Primal    Dual     Compl     Time
   0   1.22193496e+05 -1.09672462e+06  2.46e+06 6.38e-02  1.86e+02     0s
   1   3.82308086e+04 -4.08105560e+05  2.33e+05 1.38e-01  2.07e+01     0s
   2   7.43628068e+03 -7.24550396e+04  2.52e+04 1.49e-02  2.54e+00     0s
   3   2.82333548e+03 -3.67681089e+04  3.70e+03 7.36e-03  6.28e-01     0s
   4   1.85295785e+03 -7.42995758e+03  1.10e+03 8.99e-04  1.53e-01     0s
   5   8.81329316e+02 -2.54164149e+03  3.12e+02 2.66e-04  4.95e-02     0s
   6   5.73459290e+02 -9.73822345e+02  1.28e+02 5.15e-05  2.08e-02     0s
   7   4.54075409e+02 -5.64138191e+02  6.60e+01 1.33e-06  1.24e-02     0s
   8   3.81138832e+02 -3.39884427e+02  3.25e+01 1.01e-15  8.09e-03     0s
   9   3.68498182e+02 -2.14160338e+02  2.85e+01 9.25e-16  6.52e-03     0s
  10   3.51501318e+02 -1.02837612e+02  2.35e+01 1.11e-15  5.06e-03     0s
  11   3.22140999e+02 -1.96920941e+01  1.48e+01 1.03e-15  3.68e-03     0s
  12   2.94882719e+02  6.34604910e+01  8.78e+00 1.18e-15  2.42e-03     0s
  13   2.67117565e+02  1.26256962e+02  3.88e+00 9.25e-16  1.43e-03     0s
  14   2.64868783e+02  1.30933575e+02  3.55e+00 1.22e-15  1.35e-03     0s
  15   2.57497345e+02  1.68342468e+02  2.70e+00 1.04e-15  9.04e-04     0s
  16   2.48334670e+02  1.86910106e+02  1.64e+00 9.51e-16  6.17e-04     1s
  17   2.45748237e+02  1.96435363e+02  1.30e+00 1.10e-15  4.94e-04     1s
  18   2.43409542e+02  2.00617252e+02  1.00e+00 1.28e-15  4.26e-04     1s
  19   2.42336222e+02  2.07356254e+02  8.63e-01 1.44e-15  3.49e-04     1s
  20   2.40677046e+02  2.10947324e+02  6.43e-01 1.55e-15  2.95e-04     1s
  21   2.38573316e+02  2.21817898e+02  4.07e-01 9.33e-16  1.67e-04     1s
  22   2.36367763e+02  2.28668790e+02  2.01e-01 9.05e-16  7.72e-05     1s
  23   2.34625918e+02  2.33326548e+02  1.16e-02 8.88e-16  1.27e-05     1s
  24   2.34504953e+02  2.34467809e+02  1.31e-04 9.63e-16  3.58e-07     1s
  25   2.34500000e+02  2.34500000e+02  8.27e-10 8.04e-16  2.72e-12     1s
  26   2.34500000e+02  2.34500000e+02  4.08e-12 8.88e-16  2.72e-15     1s

Barrier solved model in 26 iterations and 0.77 seconds
Optimal objective 2.34500000e+02


Root relaxation: objective 2.345000e+02, 17786 iterations, 0.86 seconds

    Nodes    |    Current Node    |     Objective Bounds      |     Work
 Expl Unexpl |  Obj  Depth IntInf | Incumbent    BestBd   Gap | It/Node Time

     0     0  234.50000    0    3          -  234.50000     -      -    1s
H    0     0                     235.0000000  234.50000  0.21%     -    1s

Explored 0 nodes (19183 simplex iterations) in 1.94 seconds
Thread count was 1 (of 4 available processors)

Optimal solution found (tolerance 0.00e+00)
Best objective 2.350000000000e+02, best bound 2.350000000000e+02, gap 0.0%
Preprocessing time: 0.49 seconds
Gurobi run time: 1.94 seconds
Total run time: 2.43 seconds
Objective: 235
Solution:
1 x [i=1, i=302]
1 x [i=2, i=313]
2 x [i=3, i=301]
1 x [i=4, i=348]
1 x [i=5, i=348]
1 x [i=6, i=349]
2 x [i=7, i=297]
2 x [i=7, i=314]
1 x [i=8, i=298]
1 x [i=9, i=296]
1 x [i=9, i=316]
3 x [i=10, i=306]
2 x [i=11, i=331]
1 x [i=12, i=293]
1 x [i=12, i=294]
1 x [i=13, i=294]
1 x [i=14, i=335]
1 x [i=15, i=305]
1 x [i=16, i=316]
1 x [i=17, i=292]
1 x [i=17, i=304]
1 x [i=18, i=290]
1 x [i=18, i=291]
1 x [i=19, i=288]
1 x [i=20, i=288]
1 x [i=21, i=307]
1 x [i=22, i=287]
1 x [i=23, i=299]
1 x [i=24, i=284]
1 x [i=25, i=308]
1 x [i=26, i=283]
1 x [i=27]
1 x [i=28, i=281]
1 x [i=29, i=283]
1 x [i=30, i=279]
1 x [i=31]
2 x [i=32, i=280]
1 x [i=33, i=273]
1 x [i=34, i=325]
1 x [i=35, i=274]
1 x [i=36, i=315]
1 x [i=37, i=272]
1 x [i=37, i=277]
2 x [i=37, i=282]
1 x [i=38, i=267]
2 x [i=39, i=265]
1 x [i=39, i=266]
2 x [i=39, i=276]
1 x [i=40, i=270]
1 x [i=41, i=263]
1 x [i=42, i=264]
1 x [i=43, i=261]
1 x [i=44, i=269]
1 x [i=45, i=262]
1 x [i=46, i=262]
1 x [i=46, i=268]
1 x [i=47, i=329, i=337]
2 x [i=48, i=324, i=341]
1 x [i=49, i=256]
2 x [i=49, i=260]
1 x [i=49, i=289]
1 x [i=49, i=329, i=346]
1 x [i=50, i=256]
1 x [i=51, i=256]
1 x [i=52, i=257]
1 x [i=52, i=311, i=351]
1 x [i=53, i=254]
1 x [i=53, i=320, i=340]
1 x [i=54, i=255]
1 x [i=54, i=267]
1 x [i=54, i=322, i=344]
1 x [i=55, i=252]
1 x [i=56, i=249]
1 x [i=57, i=251]
1 x [i=57, i=258]
1 x [i=58, i=250]
1 x [i=58, i=323, i=330]
1 x [i=59, i=250]
1 x [i=59, i=317, i=342]
1 x [i=60, i=248]
1 x [i=61, i=247]
1 x [i=61, i=319, i=345]
1 x [i=62, i=300, i=354]
1 x [i=62, i=314, i=336]
1 x [i=63, i=321, i=330]
1 x [i=64, i=246]
1 x [i=65, i=313, i=342]
1 x [i=66, i=293]
1 x [i=67, i=245]
1 x [i=67, i=318, i=334]
1 x [i=68, i=243]
1 x [i=68, i=244]
1 x [i=69, i=242]
1 x [i=70, i=239]
1 x [i=71, i=332, i=334]
1 x [i=72, i=242]
1 x [i=73, i=238]
2 x [i=73, i=239]
1 x [i=74, i=237]
1 x [i=74, i=278]
1 x [i=75]
1 x [i=76, i=237]
1 x [i=77, i=347]
1 x [i=78, i=236]
1 x [i=79, i=235]
1 x [i=80, i=285, i=353]
1 x [i=81, i=233]
1 x [i=82, i=231]
2 x [i=82, i=240]
1 x [i=83, i=230]
2 x [i=84, i=234]
1 x [i=85, i=326, i=330]
1 x [i=86, i=300, i=343]
1 x [i=87, i=228]
1 x [i=88, i=227]
1 x [i=89, i=229]
1 x [i=90, i=229]
1 x [i=91, i=238]
1 x [i=92, i=225]
1 x [i=93, i=327, i=338]
1 x [i=94, i=224]
1 x [i=95, i=241]
1 x [i=95, i=259]
1 x [i=96, i=310, i=312]
1 x [i=97, i=222]
1 x [i=98, i=221]
1 x [i=98, i=223]
2 x [i=99, i=226]
1 x [i=100, i=322, i=350, i=353]
2 x [i=101, i=295, i=328]
1 x [i=102, i=230]
1 x [i=102, i=316, i=319]
1 x [i=103, i=220]
1 x [i=104, i=218]
1 x [i=105, i=219]
1 x [i=106, i=217]
1 x [i=107, i=216]
1 x [i=108, i=219]
1 x [i=109, i=214]
1 x [i=109, i=215]
1 x [i=110, i=303, i=309]
2 x [i=111, i=215]
1 x [i=112, i=213]
1 x [i=112, i=217]
1 x [i=113, i=218]
1 x [i=114, i=286, i=347]
1 x [i=115, i=232]
1 x [i=116, i=210]
1 x [i=116, i=211]
1 x [i=116, i=212]
1 x [i=117, i=208]
1 x [i=117, i=209]
1 x [i=118, i=271, i=333]
1 x [i=119, i=206]
1 x [i=119, i=207]
1 x [i=119, i=253, i=352]
1 x [i=120, i=205]
2 x [i=121, i=203]
1 x [i=122, i=275, i=320]
1 x [i=123, i=202]
1 x [i=124, i=201]
1 x [i=125, i=200]
1 x [i=125, i=204]
1 x [i=126, i=199]
1 x [i=127, i=198]
2 x [i=128, i=197]
1 x [i=129, i=195]
1 x [i=130, i=196]
1 x [i=131, i=192]
1 x [i=132, i=193]
1 x [i=133, i=188]
1 x [i=133, i=199]
1 x [i=134, i=186]
1 x [i=134, i=191]
1 x [i=135, i=189]
1 x [i=136, i=185]
1 x [i=136, i=187]
1 x [i=137, i=190]
1 x [i=138, i=182]
1 x [i=138, i=183]
1 x [i=139, i=179]
1 x [i=140, i=179]
1 x [i=141, i=179]
1 x [i=142, i=174]
1 x [i=142, i=175]
1 x [i=143, i=173]
1 x [i=144, i=178]
1 x [i=145, i=176]
1 x [i=146, i=171]
1 x [i=147, i=180]
1 x [i=148, i=179]
1 x [i=149, i=172]
1 x [i=150, i=172]
1 x [i=151, i=180]
1 x [i=152, i=171]
1 x [i=153, i=169]
1 x [i=153, i=176]
1 x [i=154, i=165]
1 x [i=154, i=168]
1 x [i=155, i=173]
2 x [i=156, i=164]
1 x [i=156, i=171]
1 x [i=157, i=171]
1 x [i=158, i=163]
1 x [i=159, i=175]
1 x [i=160, i=162]
1 x [i=161, i=161]
1 x [i=162, i=177]
1 x [i=166, i=178]
1 x [i=167, i=181]
1 x [i=170, i=172]
1 x [i=179, i=190]
1 x [i=184, i=283, i=325]
1 x [i=194, i=198, i=339]
